1 7 -1 4 3 3 6 1 4 -1 
7 7 -1 4 7 6 7 2 6 -1 
2 8 0 5 3 1 9 3 6 -1 
6 0 -1 8 6 8 1 4 7 -1 
-1 6 3 10 8 2 1 8 2 -1 
1 1 4 2 5 6 2 3 5 -1 
6 9 4 -1 2 7 7 -1 -1 -1 
6 0 8 8 2 3 4 6 4 -1 
3 1 4 6 8 2 3 -1 3 -1 
6 -1 7 7 1 -1 1 6 7 -1 
